#######################################
### Exact MIP solver for the HHCRSP ###
#######################################
-- Instance file: new-instances/HHCRSP_400_80_42_1.0_C_R.txt
-- Max threads: 4
-- Time limit: 999999 seconds
-- Use initial solution: No
Trivial flow violations prevented generating 2856525 variables.
Version identifier: 20.1.0.0 | 2020-11-10 | 9bedb6d68
CPXPARAM_Threads                                 4
CPXPARAM_Emphasis_Memory                         1
CPXPARAM_TimeLimit                               999999
Tried aggregator 1 time.
Presolve has eliminated 89016 rows and 21493 columns...
LP Presolve eliminated 89016 rows and 21493 columns.
Reduced LP has 3336562 rows, 3155225 columns, and 100778282 nonzeros.
Presolve time = 120.06 sec. (21182.26 ticks)
Compression time = 25.29 sec. (6.30 ticks)
Compression reduced 1437.49 MB A matrix to 432.56 MB
Symmetry aggregator did 5768735 additional substitutions.
Elapsed time = 147.17 sec. (22042.54 ticks, 1 iterations)

Iteration log . . .
Iteration:     1   Dual objective     =             0.000000
Iteration:  1770   Dual objective     =           485.333333

Dual crossover.
  Dual:  Fixing 3982 variables.
     3981 DMoves:  Infeasibility  3.94889677e-12  Objective  4.86666667e+02
        0 DMoves:  Infeasibility  1.50834900e-12  Objective  4.86666667e+02
  Dual:  Pushed 148, exchanged 3834.
  Primal:  Fixing 2843 variables.
     2842 PMoves:  Infeasibility  1.11022302e-16  Objective  4.86666667e+02
        0 PMoves:  Infeasibility  1.11022302e-16  Objective  4.86666667e+02
  Primal:  Pushed 2644, exchanged 199.

Solution status from MIP model:
-- Processing time: 196.109 sec.
-- Memory used: 2179.83 MB
-- Best bound: inf
-- Obj value: 486.667
-- Gap: inf%
-- Total distance: 1460
-- Total tardiness: 0
-- Largest tardiness: 0
